c ex1
p cnf 21 45
-1 2 0
-1 3 0
1 -2 -3 0
-4 5 0
-4 1 0
4 -5 -1 0
6 1 0
-6 -1 0
-7 5 0
-7 1 0
7 -5 -1 0
8 -4 0
-8 4 0
9 -6 0
-9 6 0
-10 9 0
-10 8 0
10 -9 -8 0
-11 12 0
-11 10 0
11 -12 -10 0
13 10 0
-13 -10 0
-14 12 0
-14 10 0
14 -12 -10 0
15 -11 0
-15 11 0
16 -13 0
-16 13 0
-17 16 0
-17 15 0
17 -16 -15 0
-18 19 0
-18 17 0
18 -19 -17 0
20 17 0
-20 -17 0
-21 19 0
-21 17 0
21 -19 -17 0
-2 0
-3 0
15 0
-16 0
